c This is QMaxSAT 2017 based on 14.07
c This is Glucose 3.0
c This is MiniSat 2.2.0
c WARNING: for repeatability, setting FPU to use double precision
c card = mrwto, comp = 0, pmodel = 0, narr = 11, mct = 225, verb = 0
cr firstCPXsol 0 0 0
c top = 925144817
c |  Number of variables:    110450                                           |
c |  Number of clauses:      25082758                                         |
c |  Weight of hard clauses: 925144817                                        |
c |  Number of soft clauses: 603680                                           |
c |  Number of unit soft clauses: 0                                           |
c |  Maximum Cardinality (by unit): 11589007276  (0           )               |
c last restart ## conflicts  :  1 21492 
o 1852860 | cpuTime 3.90809 s
c Sum of weights = 1053546116
c A number of soft clauses remained = 54880
c MRWTO encoding for Pseudo-Boolean Constraints
c sizeMax=65536
c No.0 Divisor=12	generated by pow1
c No.1 Divisor=11	generated by pow1
c No.2 Divisor=11	generated by pow1
c No.3 Divisor=11	generated by pow1
c No.4 Divisor=12	generated by pow1
c No.5 Divisor=12	generated by pow1
c p0= 12	p1= 11	p2= 11	p3= 11	p4= 12	p5= 12	
c number of digits = 7
c linkingVar[0].size = 12, linkingVar[1].size = 11, linkingVar[2].size = 11, linkingVar[3].size = 11, linkingVar[4].size = 12, linkingVar[5].size = 10, linkingVar[6].size = 1, 
c Pseudo-Boolean Constraints: 2380041 variables and 25287338 clauses
c Sum of weights = 1053546116
c A number of soft clauses remained = 54880
c MRWTO encoding for Pseudo-Boolean Constraints
c sizeMax=65536
c No.0 Divisor=12	generated by pow1
c No.1 Divisor=11	generated by pow1
c No.2 Divisor=11	generated by pow1
c No.3 Divisor=11	generated by pow1
c No.4 Divisor=12	generated by pow1
c No.5 Divisor=12	generated by pow1
c p0= 12	p1= 11	p2= 11	p3= 11	p4= 12	p5= 12	
c number of digits = 7
c linkingVar[0].size = 12, linkingVar[1].size = 11, linkingVar[2].size = 11, linkingVar[3].size = 11, linkingVar[4].size = 12, linkingVar[5].size = 10, linkingVar[6].size = 1, 
c Pseudo-Boolean Constraints: 2380041 variables and 25287338 clauses
c Sum of weights = 1053546116
c A number of soft clauses remained = 54880
c MRWTO encoding for Pseudo-Boolean Constraints
c sizeMax=65536
c No.0 Divisor=12	generated by pow1
c No.1 Divisor=11	generated by pow1
c No.2 Divisor=11	generated by pow1
c No.3 Divisor=11	generated by pow1
c No.4 Divisor=12	generated by pow1
c No.5 Divisor=12	generated by pow1
c p0= 12	p1= 11	p2= 11	p3= 11	p4= 12	p5= 12	
c number of digits = 7
c linkingVar[0].size = 12, linkingVar[1].size = 11, linkingVar[2].size = 11, linkingVar[3].size = 11, linkingVar[4].size = 12, linkingVar[5].size = 10, linkingVar[6].size = 1, 
c Pseudo-Boolean Constraints: 2380041 variables and 25287338 clauses
c Sum of weights = 1053546116
c A number of soft clauses remained = 54880
c MRWTO encoding for Pseudo-Boolean Constraints
c sizeMax=65536
c No.0 Divisor=12	generated by pow1
c No.1 Divisor=11	generated by pow1
c No.2 Divisor=11	generated by pow1
c No.3 Divisor=11	generated by pow1
c No.4 Divisor=12	generated by pow1
c No.5 Divisor=12	generated by pow1
c p0= 12	p1= 11	p2= 11	p3= 11	p4= 12	p5= 12	
c number of digits = 7
c linkingVar[0].size = 12, linkingVar[1].size = 11, linkingVar[2].size = 11, linkingVar[3].size = 11, linkingVar[4].size = 12, linkingVar[5].size = 10, linkingVar[6].size = 1, 
c Pseudo-Boolean Constraints: 2380041 variables and 25287338 clauses
c Sum of weights = 1053546116
c A number of soft clauses remained = 54880
c MRWTO encoding for Pseudo-Boolean Constraints
c sizeMax=65536
c No.0 Divisor=12	generated by pow1
c No.1 Divisor=11	generated by pow1
c No.2 Divisor=11	generated by pow1
c No.3 Divisor=11	generated by pow1
c No.4 Divisor=12	generated by pow1
c No.5 Divisor=12	generated by pow1
c p0= 12	p1= 11	p2= 11	p3= 11	p4= 12	p5= 12	
c number of digits = 7
c linkingVar[0].size = 12, linkingVar[1].size = 11, linkingVar[2].size = 11, linkingVar[3].size = 11, linkingVar[4].size = 12, linkingVar[5].size = 10, linkingVar[6].size = 1, 
c Pseudo-Boolean Constraints: 2380041 variables and 25287338 clauses
c Sum of weights = 1053546116
c A number of soft clauses remained = 54880
c MRWTO encoding for Pseudo-Boolean Constraints
c sizeMax=65536
c No.0 Divisor=12	generated by pow1
c No.1 Divisor=11	generated by pow1
c No.2 Divisor=11	generated by pow1
c No.3 Divisor=11	generated by pow1
c No.4 Divisor=12	generated by pow1
c No.5 Divisor=12	generated by pow1
c p0= 12	p1= 11	p2= 11	p3= 11	p4= 12	p5= 12	
c number of digits = 7
c linkingVar[0].size = 12, linkingVar[1].size = 11, linkingVar[2].size = 11, linkingVar[3].size = 11, linkingVar[4].size = 12, linkingVar[5].size = 10, linkingVar[6].size = 1, 
c Pseudo-Boolean Constraints: 2380041 variables and 25287338 clauses
c Sum of weights = 1053546116
c A number of soft clauses remained = 54880
c MRWTO encoding for Pseudo-Boolean Constraints
c sizeMax=65536
c No.0 Divisor=12	generated by pow1
c No.1 Divisor=11	generated by pow1
c No.2 Divisor=11	generated by pow1
c No.3 Divisor=11	generated by pow1
c No.4 Divisor=12	generated by pow1
c No.5 Divisor=12	generated by pow1
c p0= 12	p1= 11	p2= 11	p3= 11	p4= 12	p5= 12	
c number of digits = 7
c linkingVar[0].size = 12, linkingVar[1].size = 11, linkingVar[2].size = 11, linkingVar[3].size = 11, linkingVar[4].size = 12, linkingVar[5].size = 10, linkingVar[6].size = 1, 
c Pseudo-Boolean Constraints: 2380041 variables and 25287338 clauses
c Sum of weights = 1053546116
c A number of soft clauses remained = 54880
c MRWTO encoding for Pseudo-Boolean Constraints
c sizeMax=65536
c No.0 Divisor=12	generated by pow1
c No.1 Divisor=11	generated by pow1
c No.2 Divisor=11	generated by pow1
c No.3 Divisor=11	generated by pow1
c No.4 Divisor=12	generated by pow1
c No.5 Divisor=12	generated by pow1
c p0= 12	p1= 11	p2= 11	p3= 11	p4= 12	p5= 12	
c number of digits = 7
c linkingVar[0].size = 12, linkingVar[1].size = 11, linkingVar[2].size = 11, linkingVar[3].size = 11, linkingVar[4].size = 12, linkingVar[5].size = 10, linkingVar[6].size = 1, 
c Pseudo-Boolean Constraints: 2380041 variables and 25287338 clauses
c Sum of weights = 1053546116
c A number of soft clauses remained = 54880
c MRWTO encoding for Pseudo-Boolean Constraints
c sizeMax=65536
c No.0 Divisor=12	generated by pow1
c No.1 Divisor=11	generated by pow1
c No.2 Divisor=11	generated by pow1
c No.3 Divisor=11	generated by pow1
c No.4 Divisor=12	generated by pow1
c No.5 Divisor=12	generated by pow1
c p0= 12	p1= 11	p2= 11	p3= 11	p4= 12	p5= 12	
c number of digits = 7
c linkingVar[0].size = 12, linkingVar[1].size = 11, linkingVar[2].size = 11, linkingVar[3].size = 11, linkingVar[4].size = 12, linkingVar[5].size = 10, linkingVar[6].size = 1, 
c Pseudo-Boolean Constraints: 2380041 variables and 25287338 clauses
c Sum of weights = 1053546116
c A number of soft clauses remained = 54880
c MRWTO encoding for Pseudo-Boolean Constraints
c sizeMax=65536
c No.0 Divisor=12	generated by pow1
c No.1 Divisor=11	generated by pow1
c No.2 Divisor=11	generated by pow1
c No.3 Divisor=11	generated by pow1
c No.4 Divisor=12	generated by pow1
c No.5 Divisor=12	generated by pow1
c p0= 12	p1= 11	p2= 11	p3= 11	p4= 12	p5= 12	
c number of digits = 7
c linkingVar[0].size = 12, linkingVar[1].size = 11, linkingVar[2].size = 11, linkingVar[3].size = 11, linkingVar[4].size = 12, linkingVar[5].size = 10, linkingVar[6].size = 1, 
c Pseudo-Boolean Constraints: 2380041 variables and 25287338 clauses
c Sum of weights = 1053546116
c A number of soft clauses remained = 54880
c MRWTO encoding for Pseudo-Boolean Constraints
c sizeMax=65536
c No.0 Divisor=12	generated by pow1
c No.1 Divisor=11	generated by pow1
c No.2 Divisor=11	generated by pow1
c No.3 Divisor=11	generated by pow1
c No.4 Divisor=12	generated by pow1
c No.5 Divisor=12	generated by pow1
c p0= 12	p1= 11	p2= 11	p3= 11	p4= 12	p5= 12	
c number of digits = 7
c linkingVar[0].size = 12, linkingVar[1].size = 11, linkingVar[2].size = 11, linkingVar[3].size = 11, linkingVar[4].size = 12, linkingVar[5].size = 10, linkingVar[6].size = 1, 
c Pseudo-Boolean Constraints: 2380041 variables and 25287338 clauses
c last restart ## conflicts  :  2359 1004081 
o 1068331 | cpuTime 2915.44 s
s UNKNOWN
c Search is stopped by a limit (maybe time-limit)
cr positiVarArr: [ | 87(1->77) | 470(1->225) | 667(1->187) | 909(1->194) | 1050(1->100) | 1287(1->102) | 1427(1->7) | 1829(1->174) | 2082(1->192) | 2135(1->10) | 2464(1->104) | 2639(2->44) | 2901(3->71) | 3065(4->1) | 3423(5->123) | 3581(6->46) | 3789(7->19) | 4033(8->28) | 4348(9->108) | 4668(10->193) | 4830(11->120) | 5161(12->216) | 5368(13->188) | 5444(14->29) | 5850(15->200) | 6094(16->209) | 6115(17->1) | 6470(18->115) | 6716(19->126) | 6881(20->56) | 7122(21->62) | 7471(22->176) | 7740(23->210) | 7781(24->16) | 7993(25->1) | 8373(26->138) | 8552(27->82) | 8710(28->5) | 8949(29->9) | 9229(30->54) | 9427(31->17) | 9676(32->31) | 9939(33->59) | 10187(34->72) | 10456(35->106) | 10694(36->109) | 10859(37->39) | 11098(38->43) | 11459(39->169) | 11551(40->26) | 11841(41->81) | 12089(42->94) | 12443(43->213) | 12532(44->67) | 12757(45->57) | 13154(46->219) | 13192(47->22) | 13620(48->215) | 13676(49->36) | 14003(50->128) | 14316(51->206) | 14541(52->196) | 14655(53->75) | 14979(54->164) | 15102(55->52) | 15386(56->101) | 15692(57->172) | 15916(58->161) | 16055(59->65) | 16338(60->113) | 16463(61->3) | 16710(62->15) | 16943(63->13) | 17164(64->1) | 17602(65->202) | 17832(66->197) | 17957(67->87) | 18306(68->201) | 18342(69->2) | 18644(70->69) | 18939(71->129) | 19175(72->130) | 19383(73->103) | 19516(74->1) | 19792(75->42) | 20069(76->84) | 20253(77->33) | 20519(78->64) | 20908(79->218) | 21017(80->92) | 21236(81->76) | 21617(82->222) | 21837(83->207) | 21951(84->86) | 22224(85->124) | 22370(86->35) | 22697(87->127) | 22860(88->55) | 23203(89->163) | 23450(90->175) | 23606(91->96) | 23931(92->186) | 24078(93->98) | 24350(94->135) | 24464(95->14) | 24883(96->198) | 25144(97->224) | 25205(98->50) | 25501(99->111) | 25792(100->167) | 26020(101->160) | 26129(102->34) | 26404(103->74) | 26643(104->78) | 26879(105->79) | 27182(106->147) | 27421(107->151) | 27695(108->190) | 27831(109->91) | 28141(110->166) | 28320(111->110) | 28457(112->12) | 28775(113->95) | 28947(114->32) | 29292(115->142) | 29593(116->208) | 29693(117->73) | 29969(118->114) | 30289(119->199) | 30504(120->179) | 30783(121->223) | 30990(122->195) | 31251(123->221) | 31414(124->149) | 31607(125->107) | 31879(126->144) | 32107(127->137) | 32345(128->140) | 32487(129->47) | 32800(130->125) | 33042(131->132) | 33196(132->51) | 33400(133->20) | 33746(134->131) | 33935(135->85) | 34093(136->8) | 34318(137->1) | 34759(138->204) | 35001(139->211) | 35093(140->68) | 35340(141->80) | 35636(142->141) | 35722(143->1) | 35992(144->27) | 36381(145->181) | 36556(146->121) | 36803(147->133) | 36994(148->89) | 37180(149->40) | 37412(150->37) | 37722(151->112) | 37993(152->148) | 38105(153->25) | 38472(154->157) | 38703(155->153) | 38940(156->155) | 39190(157->170) | 39345(158->90) | 39543(159->53) | 39786(160->61) | 40118(161->158) | 40366(162->171) | 40493(163->63) | 40854(164->189) | 40918(165->18) | 41176(166->41) | 41394(167->24) | 41755(168->150) | 42020(169->180) | 42071(170->1) | 42428(171->118) | 42750(172->205) | 42791(173->11) | 43131(174->116) | 43355(175->105) | 43637(176->152) | 43817(177->97) | 44146(178->191) | 44228(179->38) | 44602(180->177) | 44872(181->212) | 44925(182->30) | 45298(183->168) | 45413(184->48) | 45746(185->146) | 45957(186->122) | 46115(187->45) | 46388(188->83) | 46606(189->66) | 46863(190->88) | 47146(191->136) | 47379(192->134) | 47599(193->119) | 47712(194->1) | 47954(195->4) | 48179(196->1) | 48480(197->60) | 48875(198->220) | 48939(199->49) | 49131(200->6) | 49577(201->217) | 49616(202->21) | 50013(203->183) | 50164(204->99) | 50478(205->178) | 50717(206->182) | 50909(207->139) | 51028(208->23) | 51399(209->159) | 51659(210->184) | 51855(211->145) | 52088(212->143) | 52238(213->58) | 52571(214->156) | 52767(215->117) | 53058(216->173) | 53323(217->203) | 53520(218->165) | 53660(219->70) | 54010(220->185) | 54153(221->93) | 54457(222->162) | 54684(223->154) | 54756(224->1) | 55214(225->214) | ]
cr the 1-th chain: [ 1->77->33->59->65->202->21->62->15->200->6->46->219->70->69->2->44->67->87->127->137->1 ] (#non-depot=20) {#cumul.=21}
cr the 2-th chain: [ 1->225->214->156->155->153->25->1 ] (#non-depot=6) {#cumul.=27}
cr the 3-th chain: [ 1->187->45->57->172->205->178->191->136->8->28->5->123->221->93->98->50->128->140->68->201->217->203->183->168->150->37->39->169->180->177->97->224->1 ] (#non-depot=32) {#cumul.=59}
cr the 4-th chain: [ 1->194->1 ] (#non-depot=1) {#cumul.=60}
cr the 5-th chain: [ 1->100->167->24->16->209->159->53->75->42->94->135->85->124->149->40->26->138->204->99->111->110->166->41->81->76->84->86->35->106->147->133->20->56->101->160->61->3->71->129->47->22->176->152->148->89->163->63->13->188->83->207->139->211->145->181->212->143->1 ] (#non-depot=57) {#cumul.=117}
cr the 6-th chain: [ 1->102->34->72->130->125->107->151->112->12->216->173->11->120->179->38->43->213->58->161->158->90->175->105->79->218->165->18->115->142->141->80->92->186->122->195->4->1 ] (#non-depot=36) {#cumul.=153}
cr the 7-th chain: [ 1->7->19->126->144->27->82->222->162->171->118->114->32->31->17->1 ] (#non-depot=14) {#cumul.=167}
cr the 8-th chain: [ 1->174->116->208->23->210->184->48->215->117->73->103->74->1 ] (#non-depot=12) {#cumul.=179}
cr the 9-th chain: [ 1->192->134->131->132->51->206->182->30->54->164->189->66->197->60->113->95->14->29->9->108->190->88->55->52->196->1 ] (#non-depot=25) {#cumul.=204}
cr the 10-th chain: [ 1->10->193->119->199->49->36->109->91->96->198->220->185->146->121->223->154->157->170->1 ] (#non-depot=18) {#cumul.=222}
cr the 11-th chain: [ 1->104->78->64->1 ] (#non-depot=3) {#cumul.=225}
c Latest Answer = 0 by 2 loops
c restarts              : 590
c conflicts             : 141552         (39 /sec)
c decisions             : 201149113      (0.00 % random) (55672 /sec)
c propagations          : 22183087968    (6139638 /sec)
c conflict literals     : 14924119       (4.37 % deleted)
c Memory used           : 21775.00 MB
c CPU time              : 3613.09 s
